59
4	5	6	8	10	11	13	18	21	22	23	24	25	27	29	33	37	38	39	40	41	43	47	48	53	55	0
4	5	8	12	15	16	17	19	20	21	22	24	25	26	27	28	31	35	37	38	39	40	42	43	44	46	57	59	0
5	7	8	10	11	12	14	15	16	19	20	21	22	25	26	27	28	30	32	34	35	42	43	45	46	48	54	57	58	0
1	2	6	8	10	19	22	24	25	27	30	31	32	33	35	37	40	42	43	45	46	48	52	53	55	58	59	0
1	2	3	7	10	13	14	16	17	22	23	24	28	30	32	36	40	43	49	52	53	54	55	56	57	59	0
1	4	7	9	11	14	15	19	22	23	25	26	27	30	32	33	36	43	46	48	50	51	52	54	56	0
3	5	6	8	9	10	11	12	16	17	19	20	25	29	32	34	35	36	38	39	41	43	45	47	48	50	52	53	55	59	0
1	2	3	4	7	10	14	15	18	19	22	23	25	28	29	34	38	40	42	44	46	48	49	55	59	0
6	7	13	14	15	16	17	19	20	21	24	26	27	28	29	31	32	34	36	37	41	47	51	52	54	58	0
1	3	4	5	7	8	11	15	17	18	24	25	26	27	28	30	34	35	40	42	43	46	47	49	51	56	57	0
1	3	6	7	10	12	19	23	25	26	27	29	30	31	32	34	35	36	37	39	41	42	43	48	49	50	51	53	57	58	59	0
2	3	7	11	13	14	16	17	20	25	29	31	32	34	35	36	37	38	40	44	46	47	49	50	51	54	55	0
1	5	9	12	15	16	18	19	20	22	23	25	27	29	37	38	39	41	42	45	46	47	48	49	50	51	52	54	55	0
3	5	6	8	9	12	16	18	19	20	22	24	28	32	37	40	42	44	48	49	51	55	58	59	0
2	3	6	8	9	10	13	16	17	22	23	24	25	26	28	30	35	36	42	43	44	47	48	49	51	53	54	55	58	0
2	3	5	7	9	12	13	14	15	17	20	21	23	28	31	32	38	39	40	43	45	49	52	53	57	0
2	5	7	9	10	12	15	16	20	23	24	29	30	31	34	35	36	39	40	43	44	48	50	52	53	59	0
1	8	10	13	14	19	20	21	23	25	27	28	31	32	33	34	35	38	39	42	43	44	46	47	48	50	55	56	0
2	3	4	6	7	8	9	11	13	14	18	24	26	27	28	29	31	32	37	40	44	48	51	56	59	0
2	3	7	9	12	13	14	16	17	18	22	24	26	28	29	30	33	37	38	43	49	50	53	54	58	0
1	2	3	9	16	18	22	23	24	25	29	30	31	37	38	39	40	42	44	46	51	52	53	55	57	58	0
1	2	3	4	5	6	8	13	14	15	20	21	23	25	26	27	28	29	31	37	38	44	45	52	53	55	56	57	0
1	5	6	8	11	13	15	16	17	18	21	22	28	29	33	34	39	40	41	43	52	53	55	56	58	59	0
1	2	4	5	9	10	14	15	17	19	20	21	26	28	29	30	31	33	34	35	36	37	38	42	43	44	46	47	49	50	51	52	53	54	55	57	0
1	2	3	4	6	7	8	10	11	12	13	15	18	21	22	26	28	29	31	33	37	39	40	42	48	52	53	56	57	58	59	0
2	3	6	9	10	11	15	19	20	22	24	25	30	32	33	34	38	43	45	49	50	54	58	0
1	2	3	4	6	9	10	11	13	18	19	22	29	30	32	33	35	38	41	42	43	44	45	47	49	50	52	57	58	59	0
2	3	5	8	9	10	14	15	16	18	19	20	22	23	24	25	30	32	33	34	35	37	41	43	49	50	51	56	58	59	0
1	7	8	9	11	12	13	17	19	20	21	22	23	24	25	27	30	32	34	35	37	38	46	51	52	56	57	58	0
3	4	5	6	10	11	15	17	20	21	24	26	27	28	29	31	34	35	37	38	42	48	50	53	55	58	0
2	4	9	11	12	16	17	18	19	21	22	24	25	30	33	37	38	40	44	47	49	51	53	55	58	0
3	4	5	6	7	9	11	12	14	16	18	19	26	27	28	29	33	34	40	41	42	44	45	47	50	53	55	56	57	58	59	0
1	4	6	18	20	23	24	25	26	27	28	31	32	34	35	38	39	51	53	54	57	58	0
3	7	8	9	10	11	12	17	18	23	24	26	28	29	30	32	33	35	38	39	40	41	44	45	46	49	52	54	55	0
2	3	4	7	10	11	12	15	17	18	24	27	28	29	30	33	34	37	38	39	42	43	45	46	49	52	54	58	59	0
5	6	7	9	11	12	15	17	24	38	39	41	44	45	47	52	56	58	0
1	2	4	9	11	12	13	14	19	20	21	22	24	25	28	29	30	31	35	40	42	43	45	46	48	49	52	55	56	57	0
1	2	7	8	12	13	16	18	20	21	22	24	26	27	29	30	31	33	34	35	36	39	41	42	43	44	47	50	51	52	53	54	56	57	59	0
1	2	7	11	13	16	17	18	21	23	25	33	34	35	36	38	41	43	44	45	46	47	49	50	54	57	0
1	2	4	5	8	10	12	14	16	17	19	21	23	25	31	32	34	37	41	42	43	44	45	48	49	50	52	58	59	0
1	7	9	11	13	23	27	28	32	34	36	38	39	40	42	48	49	50	51	59	0
2	3	4	8	10	11	13	14	15	18	21	24	25	27	30	32	35	37	38	40	41	44	45	46	47	51	52	58	59	0
1	2	3	4	5	6	7	10	11	15	16	17	18	20	23	24	26	27	28	35	37	38	39	40	45	49	50	51	52	53	54	55	56	57	0
2	8	12	14	15	17	18	19	21	22	24	27	31	32	34	36	38	39	40	42	45	46	48	50	51	57	58	0
3	4	7	13	16	22	26	27	32	34	35	36	37	39	40	42	43	44	46	47	49	51	52	54	0
2	3	4	6	8	10	12	13	18	21	24	29	34	35	37	39	42	44	45	47	52	54	57	0
1	7	9	10	12	13	15	18	24	27	31	32	36	38	39	42	45	46	48	50	51	55	59	0
1	3	4	6	7	8	11	13	14	15	17	18	19	25	30	37	40	41	44	47	50	51	52	54	55	56	57	59	0
5	8	10	11	12	13	14	15	16	20	24	26	27	28	31	34	35	37	39	40	41	43	45	51	54	56	57	58	59	0
6	7	11	12	13	17	18	20	24	26	27	28	30	32	38	39	40	41	43	44	47	48	51	54	58	59	0
6	9	10	11	12	13	14	15	19	21	24	28	29	31	33	38	41	42	43	44	45	47	48	49	50	52	54	55	57	59	0
4	5	6	7	9	13	16	17	21	22	23	24	25	27	29	34	35	36	37	38	40	42	43	45	46	48	51	55	56	0
1	4	5	7	11	15	16	17	20	21	22	23	24	25	30	31	32	33	38	43	56	0
3	5	6	9	12	13	15	20	24	26	33	34	35	38	39	43	45	46	48	49	50	51	57	0
1	4	5	7	8	12	13	14	15	18	21	22	23	24	30	31	32	34	37	43	47	48	51	52	56	0
5	6	10	18	19	22	23	25	28	29	32	36	37	38	43	48	49	52	53	55	0
2	3	5	10	11	16	21	22	24	25	27	29	32	33	37	38	39	43	44	46	48	49	51	54	0
3	4	9	11	14	15	20	21	23	25	26	27	28	29	30	31	32	33	35	36	40	42	44	49	50	0
2	4	5	7	8	11	14	17	19	23	25	27	28	32	35	38	40	41	42	47	48	49	50	51	0


comments:
random graph
nodes 59
edges 790
